src/LKH/IO/o-8_t.tsp
NAME: o-8_t
TYPE: TSP
DIMENSION: 8
EDGE_WEIGHT_TYPE: EXPLICIT
EDGE_WEIGHT_FORMAT: FULL_MATRIX
EDGE_WEIGHT_SECTION
0 -2 -10 -10 -14 -16 -6 -8
-2 0 -2 -10 -14 -16 -2 -12
-10 -2 0 -8 -20 -2 -6 -16
-10 -10 -8 0 -14 -14 -12 -20
-14 -14 -20 -14 0 -4 -20 -20
-16 -16 -2 -14 -4 0 -14 -16
-6 -2 -6 -12 -20 -14 0 -4
-8 -12 -16 -20 -20 -16 -4 0
EOF