src/LKH/IO/o-8_t.tour
NAME : o-8_t.-126.tour
COMMENT : Length = -126
COMMENT : Found by LKH [Keld Helsgaun] Sun Apr 13 17:05:00 2025
TYPE : TOUR
DIMENSION : 8
TOUR_SECTION
1
3
5
7
4
8
2
6
-1
EOF
